#   Step         Time  Temperature     Pressure    Stress_xx    Stress_yy    Stress_zz    Stress_xy    Stress_xz    Stress_yx    Stress_yz    Stress_zx    Stress_zy   SimTime_left
       0       0.0000   1.0529e+00   1.9744e+01   1.9768e+01   1.9721e+01   1.9742e+01   3.9118e-02  -1.2798e-02   3.8654e-02   2.8301e-03  -9.8685e-03   2.8301e-03               
      10       0.6000   1.0332e+00   1.9746e+01   1.9750e+01   1.9760e+01   1.9728e+01   1.0888e-02   1.9025e-02   7.5639e-03  -4.3798e-03   1.8209e-02  -4.3798e-03               
      20       1.2000   1.0402e+00   1.9778e+01   1.9764e+01   1.9801e+01   1.9771e+01  -3.0266e-03  -6.9547e-03  -2.9375e-03   2.2961e-02  -7.8961e-03   2.2961e-02    4 hrs  9 min 57 sec.
      30       1.8000   1.0430e+00   1.9774e+01   1.9770e+01   1.9782e+01   1.9771e+01   1.4206e-03  -6.9127e-03  -1.9483e-03   9.2033e-03  -7.0813e-03   9.2033e-03    3 hrs 28 min 15 sec.
